p cnf 27 168
-1 -5 0
-1 -6 0
-2 -4 0
-2 -6 0
-3 -4 0
-3 -5 0
-1 -11 0
-1 -12 0
-2 -10 0
-2 -12 0
-3 -10 0
-3 -11 0
-1 -14 0
-1 -15 0
-2 -13 0
-2 -15 0
-3 -13 0
-3 -14 0
-1 -17 0
-1 -18 0
-2 -16 0
-2 -18 0
-3 -16 0
-3 -17 0
-1 -20 0
-1 -21 0
-2 -19 0
-2 -21 0
-3 -19 0
-3 -20 0
-1 -26 0
-1 -27 0
-2 -25 0
-2 -27 0
-3 -25 0
-3 -26 0
-4 -11 0
-4 -12 0
-5 -10 0
-5 -12 0
-6 -10 0
-6 -11 0
-4 -14 0
-4 -15 0
-5 -13 0
-5 -15 0
-6 -13 0
-6 -14 0
-4 -17 0
-4 -18 0
-5 -16 0
-5 -18 0
-6 -16 0
-6 -17 0
-4 -20 0
-4 -21 0
-5 -19 0
-5 -21 0
-6 -19 0
-6 -20 0
-4 -23 0
-4 -24 0
-5 -22 0
-5 -24 0
-6 -22 0
-6 -23 0
-7 -11 0
-7 -12 0
-8 -10 0
-8 -12 0
-9 -10 0
-9 -11 0
-7 -20 0
-7 -21 0
-8 -19 0
-8 -21 0
-9 -19 0
-9 -20 0
-10 -20 0
-10 -21 0
-11 -19 0
-11 -21 0
-12 -19 0
-12 -20 0
-10 -26 0
-10 -27 0
-11 -25 0
-11 -27 0
-12 -25 0
-12 -26 0
-13 -17 0
-13 -18 0
-14 -16 0
-14 -18 0
-15 -16 0
-15 -17 0
-13 -23 0
-13 -24 0
-14 -22 0
-14 -24 0
-15 -22 0
-15 -23 0
-13 -26 0
-13 -27 0
-14 -25 0
-14 -27 0
-15 -25 0
-15 -26 0
-16 -20 0
-16 -21 0
-17 -19 0
-17 -21 0
-18 -19 0
-18 -20 0
-16 -26 0
-16 -27 0
-17 -25 0
-17 -27 0
-18 -25 0
-18 -26 0
-19 -23 0
-19 -24 0
-20 -22 0
-20 -24 0
-21 -22 0
-21 -23 0
-19 -26 0
-19 -27 0
-20 -25 0
-20 -27 0
-21 -25 0
-21 -26 0
-22 -26 0
-22 -27 0
-23 -25 0
-23 -27 0
-24 -25 0
-24 -26 0
-1 -2 0
-1 -3 0
-2 -3 0
-4 -5 0
-4 -6 0
-5 -6 0
-7 -8 0
-7 -9 0
-8 -9 0
-10 -11 0
-10 -12 0
-11 -12 0
-13 -14 0
-13 -15 0
-14 -15 0
-16 -17 0
-16 -18 0
-17 -18 0
-19 -20 0
-19 -21 0
-20 -21 0
-22 -23 0
-22 -24 0
-23 -24 0
-25 -26 0
-25 -27 0
-26 -27 0
1 4 7 10 13 16 19 22 25 0
2 5 8 11 14 17 20 23 26 0
3 6 9 12 15 18 21 24 27 0
